Cu32 Cl32                               
   1.00000000000000     
    10.8635000000000002    0.0000000000000000    0.0000000000000000
     0.0000000000000000   10.8635000000000002    0.0000000000000000
     0.0000000000000000    0.0000000000000000   10.8635000000000002
   Cu   Cl
    32    32
Direct
  0.9812728106626631  0.0076135146283575  0.9895613668971689
  0.9875673786201271  0.9947251785267532  0.5119286974052782
  0.0170929326051947  0.4971166186833424  0.0118973959844026
  0.0149972091413843  0.5002337195481231  0.4892454753710422
  0.4913728418631549  0.9919110553504467  0.0090801569892691
  0.4879288108831037  0.0133071520923866  0.5067611659624269
  0.4789807169400143  0.4772025386239778  0.9773446197879265
  0.4905284526785552  0.4920649676847187  0.5199395987490252
  0.0070412193420979  0.2331128597021832  0.2690798109544578
  0.0035563941811283  0.2339159330219190  0.7560889871979193
  0.9870763638661906  0.7377167208442328  0.2172190149943717
  0.0139306588755348  0.7233321401877046  0.7897679124292987
  0.5082246208248061  0.2459017683340805  0.2880897244378219
  0.5047976142454736  0.2057941439217002  0.7320690678473994
  0.4917882606030002  0.7395093001986650  0.2543154631529282
  0.5211626115856064  0.7423188113874363  0.7712782370533353
  0.1989911202214173  0.0332402798366574  0.2420607259857099
  0.2529435785251689  0.9757826277018186  0.7462981660780963
  0.2724257621459823  0.5107285071929821  0.2255573548402791
  0.2578111837215794  0.4839515234691879  0.7119615337417642
  0.7401538409082886  0.0185056979772852  0.2736838071349614
  0.7492071707164842  0.9924825488860778  0.7506646647711162
  0.7554581126266285  0.5424669186933065  0.2094830839978191
  0.7518746382500372  0.4552819981327645  0.7697403732010900
  0.2688041622410948  0.2793231244229640  0.9865838576176619
  0.2319630406347828  0.2638745167999296  0.4883110454959493
  0.2692035290190177  0.7615558112482176  0.9926065717064992
  0.2302174798478431  0.7600542897134213  0.4786523278483958
  0.7638037875200909  0.2508619259123569  0.0163803565113475
  0.7580220410051810  0.2837206948240350  0.4903828193769194
  0.7484482450738190  0.7773225255892189  0.0157868875721141
  0.7675137240348262  0.7559639086823335  0.5117565819428095
  0.1075317228422200  0.1553362065950814  0.0973212323951619
  0.1462809073768024  0.1293544060502102  0.6229438518039182
  0.1373685336454818  0.6295285398539099  0.1210758117070263
  0.1152507784332265  0.6331687923484597  0.6165242510910959
  0.6174451523178944  0.1313021322940771  0.1226797976033428
  0.6375470697957746  0.1205607114172475  0.6080117847919765
  0.6086048065867249  0.6412404473922634  0.1008839115616496
  0.6447206662025655  0.6101952176565688  0.6374439159014510
  0.3976802165925493  0.3610639110386138  0.1337138621795061
  0.3803886936393114  0.3489902654684837  0.6258605208857388
  0.3644791384299849  0.8774789275011269  0.1326692698581048
  0.3915351234055141  0.8637181348882806  0.6158228950332519
  0.8701624589796980  0.3679875254429669  0.1355979062544714
  0.8861898181716720  0.3777519960526400  0.6259833049654568
  0.8765105051989585  0.9094244111999558  0.1364000680793367
  0.8868119538983767  0.8652640151347251  0.6447492131442627
  0.3578216504022995  0.1196371737014374  0.3658329308594692
  0.3591474393422075  0.1215498061637630  0.8835387510368244
  0.3697009414953941  0.6155066154217627  0.3951506771600865
  0.3684162533456863  0.6108044169405483  0.8559778443069838
  0.8666968316650614  0.1341043203923390  0.3985322800245775
  0.8691823632542262  0.1343414072383687  0.8651112231838873
  0.8753127016025216  0.6127469060129881  0.3571527964600328
  0.8695376398517151  0.6171360814475121  0.9031231832642052
  0.1411014988747289  0.3870303055686496  0.3449426374904752
  0.1133123883009224  0.3825871827824013  0.8718522859659777
  0.1094610241338273  0.8937724111916344  0.3675103503340604
  0.1258322901901203  0.8778327814825818  0.8884829614948765
  0.6301430944220895  0.4036072206050674  0.3834777712992148
  0.6157334953123825  0.3566825968998569  0.8884907000447438
  0.6283436010172316  0.8572523274985767  0.3687298511776097
  0.6242922904937399  0.8872896393564618  0.8780010029403064
 
 -0.16032771E-02 -0.81362097E-03  0.11914425E-02
 -0.30244007E-03 -0.27620510E-02  0.26580772E-02
  0.25172954E-02 -0.90451988E-03  0.31175327E-02
 -0.43255811E-02  0.45127137E-02  0.41857757E-02
  0.12204049E-02 -0.24729892E-02 -0.63999786E-03
  0.29925365E-03 -0.16633333E-03 -0.24543134E-02
  0.11449625E-02  0.31058575E-03 -0.25503641E-02
 -0.19477878E-02 -0.27755781E-02 -0.59861456E-03
  0.82610051E-03 -0.21753154E-02 -0.16358180E-02
 -0.12617324E-02 -0.15879426E-02  0.75941047E-04
  0.24575383E-02 -0.41854781E-03 -0.14010030E-02
 -0.42972353E-02  0.44619417E-02 -0.86034005E-03
  0.74340080E-03 -0.10491901E-02 -0.23204955E-02
 -0.17330865E-04  0.21431295E-02 -0.25494044E-02
  0.12420522E-03 -0.17041847E-02 -0.65108651E-04
 -0.81378319E-03  0.64498733E-03  0.41405734E-03
 -0.11784974E-02  0.23109865E-02 -0.40060634E-02
  0.23236061E-02 -0.94586505E-04  0.17703650E-02
  0.95334661E-03  0.61263923E-03  0.33805723E-03
 -0.62458843E-02  0.12417188E-02  0.25371243E-02
  0.29059991E-03 -0.52521541E-02 -0.19390016E-02
  0.61232662E-03  0.16792535E-02  0.76182985E-03
  0.59473734E-04  0.27528958E-02  0.10561243E-02
 -0.38798414E-04 -0.18731923E-04  0.35844485E-02
  0.45822129E-03  0.21370959E-02  0.13983265E-02
 -0.13243195E-02 -0.12202356E-02 -0.17636303E-03
 -0.11040611E-03 -0.15920546E-02  0.34663806E-02
  0.14239710E-02  0.83876057E-03  0.72430210E-03
 -0.75712343E-03 -0.14205984E-02 -0.30702660E-02
 -0.37009358E-03 -0.33592369E-02 -0.19975173E-02
 -0.99551612E-03  0.90860679E-03  0.14564072E-02
 -0.13780646E-02 -0.85659022E-03  0.77170321E-04
  0.37757890E-02 -0.38321851E-02 -0.65486529E-03
 -0.16979369E-02 -0.74437443E-03  0.11095131E-02
  0.19684296E-02 -0.64426367E-03 -0.16767532E-02
 -0.23690538E-03 -0.38307149E-03  0.44026907E-03
 -0.60137491E-02 -0.38410457E-02 -0.93827665E-03
 -0.16994770E-02 -0.43484125E-02 -0.11303960E-02
  0.56049922E-02 -0.47577445E-02 -0.32885016E-02
  0.58648615E-03  0.43044703E-02 -0.35460474E-03
  0.17630999E-02 -0.14065010E-02 -0.18347109E-02
 -0.30278404E-02  0.48533844E-02 -0.69300317E-02
  0.20164326E-02  0.31488169E-02  0.84235639E-03
  0.48422371E-02 -0.19764909E-02 -0.22814645E-02
 -0.43755608E-02  0.12474237E-02 -0.36382078E-02
  0.14692110E-02 -0.13550063E-02  0.54390179E-03
  0.45924392E-02 -0.98783443E-03  0.11561029E-02
  0.28197848E-02 -0.98608393E-03 -0.24024156E-02
  0.50225086E-02  0.22065876E-02  0.30349253E-02
 -0.26861057E-02  0.21795765E-02  0.54486844E-03
  0.14742961E-02  0.72706132E-02  0.23323539E-02
 -0.20512156E-02 -0.12318329E-02 -0.12848226E-02
  0.39033762E-02  0.30593017E-02 -0.30550300E-02
  0.63323076E-02  0.23969564E-02  0.41478687E-03
 -0.84707794E-04  0.22184292E-02 -0.25959980E-03
  0.93246783E-03  0.35216652E-02  0.66328362E-03
 -0.30043692E-03 -0.38388923E-02  0.15978686E-02
 -0.32186569E-02  0.24526642E-02  0.36961935E-03
 -0.26075485E-02  0.42126621E-02  0.37176001E-02
 -0.74331573E-03  0.15949016E-02  0.29703328E-02
 -0.31618968E-03  0.12337582E-02  0.21161074E-02
  0.30816308E-02 -0.40679177E-02  0.57686722E-02
  0.32113622E-02  0.89407716E-03 -0.37969796E-02
 -0.37009938E-02 -0.14794382E-02  0.13358200E-02
 
           1
   1.00000000000000     
  0.41887041E+00 -0.78586718E-03 -0.18564855E-18  0.00000000E+00
  0.98112523E+00  0.75386197E-02  0.98967104E+00
  0.98753954E+00  0.99447093E+00  0.51217338E+00
  0.17324653E-01  0.49703336E+00  0.12184369E-01
  0.14599033E-01  0.50064912E+00  0.48963078E+00
  0.49148518E+00  0.99168341E+00  0.90212443E-02
  0.48795636E+00  0.13291841E-01  0.50653524E+00
  0.47908611E+00  0.47723113E+00  0.97710986E+00
  0.49034916E+00  0.49180947E+00  0.51988450E+00
  0.71172630E-02  0.23291262E+00  0.26892923E+00
  0.34402500E-02  0.23376976E+00  0.75609598E+00
  0.98730258E+00  0.73767819E+00  0.21709005E+00
  0.13535092E-01  0.72374287E+00  0.78968872E+00
  0.50829305E+00  0.24580519E+00  0.28787612E+00
  0.50479602E+00  0.20599142E+00  0.73183439E+00
  0.49179969E+00  0.73935243E+00  0.25430947E+00
  0.52108770E+00  0.74237818E+00  0.77131635E+00
  0.19888264E+00  0.33453009E-01  0.24169196E+00
  0.25315747E+00  0.97577392E+00  0.74646113E+00
  0.27251352E+00  0.51078490E+00  0.22558847E+00
  0.25723624E+00  0.48406583E+00  0.71219508E+00
  0.74018059E+00  0.18022230E-01  0.27350532E+00
  0.74926354E+00  0.99263713E+00  0.75073479E+00
  0.75546359E+00  0.54272033E+00  0.20958030E+00
  0.75187107E+00  0.45528027E+00  0.77007033E+00
  0.26884634E+00  0.27951985E+00  0.98671258E+00
  0.23184114E+00  0.26376219E+00  0.48829481E+00
  0.26919337E+00  0.76140926E+00  0.99292566E+00
  0.23034856E+00  0.76013150E+00  0.47871900E+00
  0.76373409E+00  0.25073116E+00  0.16097734E-01
  0.75798797E+00  0.28341147E+00  0.49019895E+00
  0.74835661E+00  0.77740616E+00  0.15920952E-01
  0.76738687E+00  0.75588506E+00  0.51176369E+00
  0.10787929E+00  0.15498345E+00  0.97260951E-01
  0.14612461E+00  0.12928589E+00  0.62304598E+00
  0.13754973E+00  0.62946923E+00  0.12092146E+00
  0.11522897E+00  0.63313353E+00  0.61656478E+00
  0.61689158E+00  0.13094856E+00  0.12259343E+00
  0.63739063E+00  0.12016043E+00  0.60790773E+00
  0.60912075E+00  0.64080249E+00  0.10058120E+00
  0.64477465E+00  0.61059145E+00  0.63741127E+00
  0.39784251E+00  0.36093444E+00  0.13354497E+00
  0.38010998E+00  0.34943703E+00  0.62522260E+00
  0.36466475E+00  0.87776878E+00  0.13274681E+00
  0.39198086E+00  0.86353620E+00  0.61561288E+00
  0.86975968E+00  0.36810235E+00  0.13526300E+00
  0.88632506E+00  0.37762727E+00  0.62603337E+00
  0.87693325E+00  0.90933348E+00  0.13650649E+00
  0.88707152E+00  0.86517324E+00  0.64452807E+00
  0.35828398E+00  0.11984029E+00  0.36611230E+00
  0.35890018E+00  0.12175044E+00  0.88358891E+00
  0.36983665E+00  0.61617589E+00  0.39536537E+00
  0.36822744E+00  0.61069103E+00  0.85585957E+00
  0.86705614E+00  0.13438593E+00  0.39825106E+00
  0.86976526E+00  0.13456205E+00  0.86514940E+00
  0.87530490E+00  0.61295112E+00  0.35712890E+00
  0.86962347E+00  0.61746026E+00  0.90318424E+00
  0.14107384E+00  0.38667693E+00  0.34508972E+00
  0.11301611E+00  0.38281295E+00  0.87188631E+00
  0.10922100E+00  0.89416019E+00  0.36785256E+00
  0.12576387E+00  0.87797959E+00  0.88875638E+00
  0.63011399E+00  0.40372079E+00  0.38367256E+00
  0.61601716E+00  0.35630814E+00  0.88902171E+00
  0.62863921E+00  0.85733463E+00  0.36838033E+00
  0.62395161E+00  0.88715346E+00  0.87812397E+00
 -0.14977998E-03 -0.75571106E-04  0.11040032E-03
 -0.28872879E-04 -0.25481842E-03  0.24357057E-03
  0.23475285E-03 -0.83068279E-04  0.28528150E-03
 -0.39671429E-03  0.41631634E-03  0.38619119E-03
  0.11266840E-03 -0.22926349E-03 -0.59364331E-04
  0.27834455E-04 -0.15067073E-04 -0.22364544E-03
  0.10673032E-03  0.25649399E-04 -0.23569141E-03
 -0.18135446E-03 -0.25702495E-03 -0.55838348E-04
  0.77036238E-04 -0.20062050E-03 -0.15009201E-03
 -0.11995529E-03 -0.14833721E-03  0.10666090E-04
  0.22742635E-03 -0.39925277E-04 -0.13050587E-03
 -0.39425203E-03  0.41060062E-03 -0.78401541E-04
  0.66367559E-04 -0.97326670E-04 -0.21327040E-03
  0.13110428E-05  0.19616813E-03 -0.23912180E-03
  0.12515972E-04 -0.15661040E-03 -0.63143795E-05
 -0.74227766E-04  0.61420024E-04  0.40924985E-04
 -0.10941186E-03  0.21172900E-03 -0.36695703E-03
  0.21231416E-03 -0.92708152E-05  0.16396887E-03
  0.85213028E-04  0.56826191E-04  0.30269431E-04
 -0.57072212E-03  0.11115018E-03  0.23133824E-03
  0.28968784E-04 -0.48258671E-03 -0.17721691E-03
  0.55353005E-04  0.15311650E-03  0.71875724E-04
  0.72938457E-05  0.25546134E-03  0.99105366E-04
 -0.37857496E-05 -0.44408308E-05  0.33056874E-03
  0.43944315E-04  0.19573765E-03  0.12819618E-03
 -0.12241881E-03 -0.11231521E-03 -0.14815625E-04
 -0.10657485E-04 -0.14383359E-03  0.32012248E-03
  0.12978280E-03  0.76652587E-04  0.66015925E-04
 -0.66541280E-04 -0.12817038E-03 -0.27968937E-03
 -0.32281092E-04 -0.30995132E-03 -0.18474965E-03
 -0.93759266E-04  0.83882821E-04  0.13359605E-03
 -0.12457970E-03 -0.77162218E-04  0.85005967E-05
  0.34395650E-03 -0.34843988E-03 -0.64439235E-04
 -0.14797134E-03 -0.63962605E-04  0.98756576E-04
  0.18060246E-03 -0.61818499E-04 -0.15315499E-03
 -0.26170843E-04 -0.33979760E-04  0.35555555E-04
 -0.55472810E-03 -0.34938652E-03 -0.92368439E-04
 -0.15957383E-03 -0.39793262E-03 -0.10337022E-03
  0.51724092E-03 -0.43369263E-03 -0.30449930E-03
  0.56796397E-04  0.39281682E-03 -0.33535351E-04
  0.16762374E-03 -0.13484287E-03 -0.16883604E-03
 -0.27965059E-03  0.44743154E-03 -0.63571147E-03
  0.18356679E-03  0.28882519E-03  0.73256031E-04
  0.45164944E-03 -0.18109890E-03 -0.21444984E-03
 -0.40881503E-03  0.10565059E-03 -0.33966215E-03
  0.13072001E-03 -0.12612649E-03  0.48509424E-04
  0.42516735E-03 -0.80479094E-04  0.10548825E-03
  0.25951370E-03 -0.91391943E-04 -0.22032939E-03
  0.45740083E-03  0.20278374E-03  0.27692067E-03
 -0.25425562E-03  0.20332254E-03  0.56524018E-04
  0.13563824E-03  0.66432674E-03  0.22035717E-03
 -0.18797772E-03 -0.11835719E-03 -0.12108700E-03
  0.35206671E-03  0.28469814E-03 -0.27500894E-03
  0.58952538E-03  0.22523229E-03  0.35524503E-04
 -0.12982448E-04  0.19609753E-03 -0.30763012E-04
  0.86420867E-04  0.32131055E-03  0.63538359E-04
 -0.21345297E-04 -0.35020314E-03  0.13898819E-03
 -0.30453862E-03  0.22785211E-03  0.39078775E-04
 -0.23991971E-03  0.39298444E-03  0.34094286E-03
 -0.66082890E-04  0.14678918E-03  0.27790822E-03
 -0.24693001E-04  0.11931228E-03  0.20109084E-03
  0.27915326E-03 -0.36855382E-03  0.53782013E-03
  0.29237325E-03  0.78672170E-04 -0.35336844E-03
 -0.33904638E-03 -0.13499956E-03  0.12133263E-03
  0.00000000E+00  0.00000000E+00  0.00000000E+00
  0.00000000E+00  0.00000000E+00  0.00000000E+00
  0.00000000E+00  0.00000000E+00  0.00000000E+00
  0.00000000E+00  0.00000000E+00  0.00000000E+00
  0.00000000E+00  0.00000000E+00  0.00000000E+00
  0.00000000E+00  0.00000000E+00  0.00000000E+00
  0.00000000E+00  0.00000000E+00  0.00000000E+00
  0.00000000E+00  0.00000000E+00  0.00000000E+00
  0.00000000E+00  0.00000000E+00  0.00000000E+00
  0.00000000E+00  0.00000000E+00  0.00000000E+00
  0.00000000E+00  0.00000000E+00  0.00000000E+00
  0.00000000E+00  0.00000000E+00  0.00000000E+00
  0.00000000E+00  0.00000000E+00  0.00000000E+00
  0.00000000E+00  0.00000000E+00  0.00000000E+00
  0.00000000E+00  0.00000000E+00  0.00000000E+00
  0.00000000E+00  0.00000000E+00  0.00000000E+00
  0.00000000E+00  0.00000000E+00  0.00000000E+00
  0.00000000E+00  0.00000000E+00  0.00000000E+00
  0.00000000E+00  0.00000000E+00  0.00000000E+00
  0.00000000E+00  0.00000000E+00  0.00000000E+00
  0.00000000E+00  0.00000000E+00  0.00000000E+00
  0.00000000E+00  0.00000000E+00  0.00000000E+00
  0.00000000E+00  0.00000000E+00  0.00000000E+00
  0.00000000E+00  0.00000000E+00  0.00000000E+00
  0.00000000E+00  0.00000000E+00  0.00000000E+00
  0.00000000E+00  0.00000000E+00  0.00000000E+00
  0.00000000E+00  0.00000000E+00  0.00000000E+00
  0.00000000E+00  0.00000000E+00  0.00000000E+00
  0.00000000E+00  0.00000000E+00  0.00000000E+00
  0.00000000E+00  0.00000000E+00  0.00000000E+00
  0.00000000E+00  0.00000000E+00  0.00000000E+00
  0.00000000E+00  0.00000000E+00  0.00000000E+00
  0.00000000E+00  0.00000000E+00  0.00000000E+00
  0.00000000E+00  0.00000000E+00  0.00000000E+00
  0.00000000E+00  0.00000000E+00  0.00000000E+00
  0.00000000E+00  0.00000000E+00  0.00000000E+00
  0.00000000E+00  0.00000000E+00  0.00000000E+00
  0.00000000E+00  0.00000000E+00  0.00000000E+00
  0.00000000E+00  0.00000000E+00  0.00000000E+00
  0.00000000E+00  0.00000000E+00  0.00000000E+00
  0.00000000E+00  0.00000000E+00  0.00000000E+00
  0.00000000E+00  0.00000000E+00  0.00000000E+00
  0.00000000E+00  0.00000000E+00  0.00000000E+00
  0.00000000E+00  0.00000000E+00  0.00000000E+00
  0.00000000E+00  0.00000000E+00  0.00000000E+00
  0.00000000E+00  0.00000000E+00  0.00000000E+00
  0.00000000E+00  0.00000000E+00  0.00000000E+00
  0.00000000E+00  0.00000000E+00  0.00000000E+00
  0.00000000E+00  0.00000000E+00  0.00000000E+00
  0.00000000E+00  0.00000000E+00  0.00000000E+00
  0.00000000E+00  0.00000000E+00  0.00000000E+00
  0.00000000E+00  0.00000000E+00  0.00000000E+00
  0.00000000E+00  0.00000000E+00  0.00000000E+00
  0.00000000E+00  0.00000000E+00  0.00000000E+00
  0.00000000E+00  0.00000000E+00  0.00000000E+00
  0.00000000E+00  0.00000000E+00  0.00000000E+00
  0.00000000E+00  0.00000000E+00  0.00000000E+00
  0.00000000E+00  0.00000000E+00  0.00000000E+00
  0.00000000E+00  0.00000000E+00  0.00000000E+00
  0.00000000E+00  0.00000000E+00  0.00000000E+00
  0.00000000E+00  0.00000000E+00  0.00000000E+00
  0.00000000E+00  0.00000000E+00  0.00000000E+00
  0.00000000E+00  0.00000000E+00  0.00000000E+00
  0.00000000E+00  0.00000000E+00  0.00000000E+00
