ENCUT = 500
ALGO = Normal
EDIFF = 1E-4
PREC = Accurate
ISMEAR = 0
SIGMA = 0.05
ISIF = 2
NSW = 10000
IBRION = 0
TEBEG = 300
TEEND = 300
SMASS = 1
POTIM = 1.0

LHFCALC = .TRUE.
HFSCREEN = 0.2
AEXX = 0.39
PRECFOCK = Fast

LWAVE = .TRUE.
LCHARG = .FALSE.

LREAL = Auto
ISYM = 0
NCORE = 14
